DATASET = "thpack1";
INSTANCE = "040";

WIDTH = 233;
HEIGHT = 220;
LENGTH = 587;

NO_OF_SHAPES = 3;
size = [|
  85,77,62 |
  94,63,32 |
  83,75,45 |
|];

verticality = [|
  1,1,1 |
  0,1,1 |
  1,1,1 |
|];

box_count = [
  28,
  39,
  40,
];
